# Solution for model GasLib-40
# Objective value = 1.1552665636507973e+01
loadshed[innode_1] 0
loadshed[innode_2] 0
loadshed[innode_3] 0
loadshed[innode_4] 0
loadshed[innode_5] 0
loadshed[innode_6] 0
loadshed[innode_7] 0
loadshed[innode_8] 0
loadshed[source_1] -2.1212064881963411e-01
loadshed[source_2] -4.2068289100575029e-02
loadshed[source_3] 3.2726532059775393e-01
loadshed[sink_1] 0
loadshed[sink_2] 0
loadshed[sink_3] 0
loadshed[sink_4] 0
loadshed[sink_5] 0
loadshed[sink_6] 0
loadshed[sink_7] 0
loadshed[sink_8] 0
loadshed[sink_9] 0
loadshed[sink_10] 0
loadshed[sink_11] 0
loadshed[sink_12] 7.0640503255080589e-01
loadshed[sink_13] 0
loadshed[sink_14] 0
loadshed[sink_15] 0
loadshed[sink_16] 0
loadshed[sink_17] 0
loadshed[sink_18] 0
loadshed[sink_19] 0
loadshed[sink_20] 0
loadshed[sink_21] 0
loadshed[sink_22] 0
loadshed[sink_23] 0
loadshed[sink_24] 0
loadshed[sink_25] 0
loadshed[sink_26] 0
loadshed[sink_27] 0
loadshed[sink_28] 0
loadshed[sink_29] 0
flow[source_1,sink_3] 1.9162449007207618e+02
flow[innode_1,sink_16] 1.6354166666666970e+01
flow[innode_6,sink_13] 8.1263543292346654e+00
flow[sink_13,sink_14] -8.2278123374320025e+00
flow[sink_14,sink_10] -2.4581979004098670e+01
flow[sink_25,sink_26] 1.7631269350997235e+02
flow[sink_26,sink_9] 1.3563483436349210e+02
flow[sink_9,sink_18] 1.1928066769682543e+02
flow[sink_26,sink_4] 24.3236924798141
flow[sink_4,sink_20] -2.4738807520186469e+01
flow[sink_18,sink_6] 1.0292650103015876e+02
flow[sink_25,innode_8] -1.5891615673873980e+02
flow[sink_6,sink_7] 5.3864001030158704e+01
flow[sink_6,sink_22] 3.2708333333333641e+01
flow[sink_7,sink_24] 3.7509834363492033e+01
flow[sink_22,sink_1] 1.6354166666666970e+01
flow[sink_24,sink_21] 2.1155667696825365e+01
flow[sink_21,sink_12] 4.8015010301586960e+00
flow[sink_7,sink_5] 0
flow[sink_5,sink_17] -1.6354166666667197e+01
flow[sink_17,sink_4] -3.2708333333333869e+01
flow[sink_17,sink_8] 0
flow[sink_3,sink_23] 16.3541666666697
flow[sink_8,sink_20] -1.6354166666668334e+01
flow[sink_25,sink_20] 5.7447140853521432e+01
flow[sink_25,sink_15] -9.9324198620655622e+01
flow[sink_15,sink_29] -6.4294646342790259e+01
flow[sink_29,sink_28] 1.6354166666667879e+01
flow[sink_29,sink_2] 6.7737885611198735e+01
flow[sink_2,sink_15] 5.1383718944532063e+01
flow[sink_29,innode_7] -1.6474086528732354e+02
flow[innode_4,sink_19] 8.9998645670765654e+01
flow[sink_19,innode_3] 3.5938194900823675e+01
flow[innode_4,innode_5] 1.6354166666679703e+01
flow[sink_27,innode_5] -1.6354166666679703e+01
flow[sink_27,sink_19] 0
flow[sink_10,sink_11] 3.2708333333333641e+01
flow[sink_10,innode_2] -3.7706284103275237e+01
flow[sink_10,innode_3] -3.5938194900823675e+01
flow[innode_6,sink_25] -8.1263543292346654e+00
flow[sink_11,innode_1] 1.6354166666666970e+01
flow[sink_19,innode_2] 3.7706284103275237e+01
flow[source_3,innode_4] 1.0635281233744536e+02
flow[source_2,innode_7] 1.6474086528732354e+02
flow[sink_3,innode_8] 1.5891615673873980e+02
pressure[innode_1] 7.5222541391505658e+01
pressure[innode_2] 7.7367175546021116e+01
pressure[innode_3] 7.7287594482972310e+01
pressure[innode_4] 81.01325
pressure[innode_5] 8.1002000741808772e+01
pressure[innode_6] 7.4241624471247434e+01
pressure[innode_7] 81.01325
pressure[innode_8] 8.0372722532897583e+01
pressure[source_1] 81.01325
pressure[source_2] 81.01325
pressure[source_3] 81.01325
pressure[sink_1] 4.4540478394354530e+01
pressure[sink_2] 74.8912001357901
pressure[sink_3] 8.0372722532897583e+01
pressure[sink_4] 5.8731447795632924e+01
pressure[sink_5] 5.6263175942673456e+01
pressure[sink_6] 46.6415560047419
pressure[sink_7] 4.5902131662943930e+01
pressure[sink_8] 5.9406746320902492e+01
pressure[sink_9] 5.3705930109516771e+01
pressure[sink_10] 75.3742426991092
pressure[sink_11] 7.5222541391505658e+01
pressure[sink_12] 1.0132500000000029e+00
pressure[sink_13] 7.4196825237870328e+01
pressure[sink_14] 7.4211549608902814e+01
pressure[sink_15] 7.4723443618225446e+01
pressure[sink_16] 7.4200891556687978e+01
pressure[sink_17] 5.7481443148028205e+01
pressure[sink_18] 4.9390000034713680e+01
pressure[sink_19] 7.7367175546021116e+01
pressure[sink_20] 6.0546401744490780e+01
pressure[sink_21] 2.7218868537054606e+00
pressure[sink_22] 4.5604247536709536e+01
pressure[sink_23] 80.2080045212378
pressure[sink_24] 2.9561662174882954e+00
pressure[sink_25] 7.4241624471247434e+01
pressure[sink_26] 6.1824025010042938e+01
pressure[sink_27] 8.0866291377726043e+01
pressure[sink_28] 7.6311794951545224e+01
pressure[sink_29] 76.6070772251624
interdiction[source_1,sink_3] 0
interdiction[innode_1,sink_16] 0
interdiction[innode_6,sink_13] 0
interdiction[sink_13,sink_14] 0
interdiction[sink_14,sink_10] 0
interdiction[sink_25,sink_26] 0
interdiction[sink_26,sink_9] 0
interdiction[sink_9,sink_18] 0
interdiction[sink_26,sink_4] 0
interdiction[sink_4,sink_20] 0
interdiction[sink_18,sink_6] 0
interdiction[sink_25,innode_8] 0
interdiction[sink_6,sink_7] 0
interdiction[sink_6,sink_22] 0
interdiction[sink_7,sink_24] 0
interdiction[sink_22,sink_1] 0
interdiction[sink_24,sink_21] 0
interdiction[sink_21,sink_12] 0
interdiction[sink_7,sink_5] 1
interdiction[sink_5,sink_17] 0
interdiction[sink_17,sink_4] 0
interdiction[sink_17,sink_8] 1
interdiction[sink_3,sink_23] 0
interdiction[sink_8,sink_20] 0
interdiction[sink_25,sink_20] 0
interdiction[sink_25,sink_15] 0
interdiction[sink_15,sink_29] 0
interdiction[sink_29,sink_28] 0
interdiction[sink_29,sink_2] 0
interdiction[sink_2,sink_15] 0
interdiction[sink_29,innode_7] 0
interdiction[innode_4,sink_19] 0
interdiction[sink_19,innode_3] 0
interdiction[innode_4,innode_5] 0
interdiction[sink_27,innode_5] 0
interdiction[sink_27,sink_19] 1
interdiction[sink_10,sink_11] 0
interdiction[sink_10,innode_2] 0
interdiction[sink_10,innode_3] 0
interdiction[innode_6,sink_25] 0
interdiction[sink_11,innode_1] 0
interdiction[sink_19,innode_2] 0
interdiction[source_3,innode_4] 0
interdiction[source_2,innode_7] 0
interdiction[sink_3,innode_8] 0
WCcheckFlow[source_1,sink_3] 39
WCcheckFlow[innode_1,sink_16] 1
WCcheckFlow[innode_6,sink_13] 13
WCcheckFlow[sink_13,sink_14] 12
WCcheckFlow[sink_14,sink_10] 11
WCcheckFlow[sink_25,sink_26] 15
WCcheckFlow[sink_26,sink_9] 9
WCcheckFlow[sink_9,sink_18] 8
WCcheckFlow[sink_26,sink_4] 5
WCcheckFlow[sink_4,sink_20] 2
WCcheckFlow[sink_18,sink_6] 7
WCcheckFlow[sink_25,innode_8] -36
WCcheckFlow[sink_6,sink_7] 4
WCcheckFlow[sink_6,sink_22] 2
WCcheckFlow[sink_7,sink_24] 3
WCcheckFlow[sink_22,sink_1] 1
WCcheckFlow[sink_24,sink_21] 2
WCcheckFlow[sink_21,sink_12] 1
WCcheckFlow[sink_7,sink_5] 0
WCcheckFlow[sink_5,sink_17] -1
WCcheckFlow[sink_17,sink_4] -2
WCcheckFlow[sink_17,sink_8] 0
WCcheckFlow[sink_3,sink_23] 1
WCcheckFlow[sink_8,sink_20] -1
WCcheckFlow[sink_25,sink_20] 0
WCcheckFlow[sink_25,sink_15] 6
WCcheckFlow[sink_15,sink_29] 5
WCcheckFlow[sink_29,sink_28] 1
WCcheckFlow[sink_29,sink_2] 1
WCcheckFlow[sink_2,sink_15] 0
WCcheckFlow[sink_29,innode_7] 2
WCcheckFlow[innode_4,sink_19] -4
WCcheckFlow[sink_19,innode_3] -5
WCcheckFlow[innode_4,innode_5] 2
WCcheckFlow[sink_27,innode_5] -1
WCcheckFlow[sink_27,sink_19] 0
WCcheckFlow[sink_10,sink_11] 3
WCcheckFlow[sink_10,innode_2] 1
WCcheckFlow[sink_10,innode_3] 6
WCcheckFlow[innode_6,sink_25] -14
WCcheckFlow[sink_11,innode_1] 2
WCcheckFlow[sink_19,innode_2] 0
WCcheckFlow[source_3,innode_4] -1
WCcheckFlow[source_2,innode_7] -1
WCcheckFlow[sink_3,innode_8] 37
